4852905306213049027504,3,1,2,04,5,1,2,03,7,1,2,05,2,1,2,06,13,1,2,011,5,1,2,04,11,1,2,06,8,1,2,014,7,1,2,08,3,1,2,010,9,1,2,011,7,1,2,05,7,1,2,012,9,1,2,015,4,1,2,07,5,1,2,01,13,1,2,07,6,1,2,04,7,1,2,08,13,1,2,04,11,1,2,07,7,1,2,07,9,1,2,04,10,1,2,015,5,1,2,04,12,1,2,010,14,1,2,010,14,1,2,04,11,1,2,013,9,1,2,06,8,1,2,012,15,1,2,04,14,1,2,010,12,1,2,06,9,1,2,04,10,1,2,013,2,1,2,08,5,1,2,05,6,1,2,01,14,1,2,09,15,1,2,02,4,1,2,010,13,1,2,06,8,1,2,012,8,1,2,012,12,1,2,09,14,1,2,010,11,1,2,013,14,1,2,010,9,1,2,0